CPXPARAM_TimeLimit                               3600
CPXPARAM_Read_DataCheck                          1
Tried aggregator 1 time.
MIP Presolve eliminated 2495 rows and 0 columns.
MIP Presolve modified 4375 coefficients.
Reduced MIP has 118085 rows, 54451 columns, and 560770 nonzeros.
Reduced MIP has 2850 binaries, 0 generals, 0 SOSs, and 0 indicators.
Presolve time = 0.09 sec. (156.48 ticks)
Found incumbent of value 12242.000000 after 0.20 sec. (289.72 ticks)
Probing fixed 0 vars, tightened 3 bounds.
Probing time = 0.03 sec. (32.43 ticks)
Tried aggregator 1 time.
Reduced MIP has 118085 rows, 54451 columns, and 560770 nonzeros.
Reduced MIP has 2850 binaries, 0 generals, 0 SOSs, and 0 indicators.
Presolve time = 0.21 sec. (226.34 ticks)
Probing time = 0.03 sec. (24.69 ticks)
MIP emphasis: balance optimality and feasibility.
MIP search method: dynamic search.
Parallel mode: deterministic, using up to 8 threads.
Root relaxation solution time = 543.78 sec. (151154.60 ticks)

        Nodes                                         Cuts/
   Node  Left     Objective  IInf  Best Integer    Best Bound    ItCnt     Gap

*     0+    0                        12242.0000     1050.0000            91.42%
      0     0     1106.7648  2654    12242.0000     1106.7648   257384   90.96%
      0     0     1111.3595  2639    12242.0000    Cuts: 1145   450074   90.92%

Implied bound cuts applied:  416
Flow cuts applied:  612
Mixed integer rounding cuts applied:  1752
Lift and project cuts applied:  26
Gomory fractional cuts applied:  13

Root node processing (before b&c):
  Real time             = 3600.06 sec. (2562299.59 ticks)
Parallel b&c, 8 threads:
  Real time             =    0.00 sec. (0.00 ticks)
  Sync time (average)   =    0.00 sec.
  Wait time (average)   =    0.00 sec.
                          ------------
Total (root+branch&cut) = 3600.06 sec. (2562299.59 ticks)
